Aluminium oxide - alpha
1.0
        4.7540001869         0.0000000000         0.0000000000
       -2.3770000935         4.1170849315         0.0000000000
        0.0000000000         0.0000000000        12.9899997711
   Al    O
   12   18
Direct
     0.000000000         0.000000000         0.352280000
     0.000000000         0.000000000         0.647720000
     0.000000000         0.000000000         0.147720000
     0.000000000         0.000000000         0.852280000
     0.666666667         0.333333333         0.685613333
     0.666666667         0.333333333         0.981053333
     0.666666667         0.333333333         0.481053333
     0.666666667         0.333333333         0.185613333
     0.333333333         0.666666667         0.018946667
     0.333333333         0.666666667         0.314386667
     0.333333333         0.666666667         0.814386667
     0.333333333         0.666666667         0.518946667
     0.306400000         0.000000000         0.250000000
     0.693600000         0.000000000         0.750000000
     0.000000000         0.306400000         0.250000000
     0.000000000         0.693600000         0.750000000
     0.693600000         0.693600000         0.250000000
     0.306400000         0.306400000         0.750000000
     0.973066667         0.333333333         0.583333333
     0.360266667         0.333333333         0.083333333
     0.666666667         0.639733333         0.583333333
     0.666666667         0.026933333         0.083333333
     0.360266667         0.026933333         0.583333333
     0.973066667         0.639733333         0.083333333
     0.639733333         0.666666667         0.916666667
     0.026933333         0.666666667         0.416666667
     0.333333333         0.973066667         0.916666667
     0.333333333         0.360266667         0.416666667
     0.026933333         0.360266667         0.916666667
     0.639733333         0.973066667         0.416666667
